# Cost: 1193

# Tail Head Net
2101 2201 1
2201 2301 1
2301 2401 1
2401 2501 1
2501 2601 1
2601 2701 1
2701 2801 1
2801 2901 1
2901 3001 1
3001 3101 1
3101 3201 1
3201 3301 1
3301 3401 1
3401 3501 1
3501 3601 1
3601 3701 1
3701 3801 1
3801 3901 1
3901 4001 1
4001 4101 1
4101 4201 1
4201 4301 1
4301 4401 1
4401 4501 1
4501 4601 1
4601 4701 1
4701 4801 1
4801 4901 1
4901 4902 1
4901 5001 1
4902 4903 1
4903 4904 1
4904 4905 1
4905 4906 1
4906 4907 1
4907 4908 1
4908 4909 1
4909 4910 1
4910 4911 1
4911 4912 1
4912 4913 1
4913 4914 1
4914 4915 1
4915 4916 1
4916 4917 1
4917 4918 1
4918 4919 1
4919 4920 1
4920 4921 1
4921 4922 1
4922 4923 1
4923 4924 1
4924 4925 1
4925 4926 1
4926 4927 1
4927 4928 1
4928 4929 1
4929 4930 1
4930 4931 1
4931 4932 1
4932 4933 1
4933 4934 1
4934 4935 1
4935 4936 1
4936 4937 1
4937 4938 1
4938 4939 1
4939 4940 1
4940 4941 1
4941 4942 1
4942 4943 1
4943 4944 1
4944 4945 1
4945 4946 1
4946 4947 1
4947 4948 1
4948 4949 1
4949 4950 1
4950 4951 1
4951 4952 1
4952 4953 1
4953 4954 1
4954 4955 1
4955 4956 1
4956 4957 1
4957 4958 1
4958 4959 1
4959 4960 1
4960 4961 1
4961 4962 1
4962 4963 1
4963 4964 1
4964 4965 1
4965 4966 1
4966 4967 1
4967 4968 1
4968 4969 1
4969 4970 1
4970 4971 1
4971 4972 1
4972 4973 1
4973 4974 1
4974 4975 1
4975 4976 1
4976 4977 1
4977 4978 1
4978 4979 1
4979 4980 1
4980 4981 1
4981 4982 1
4982 4983 1
4983 4984 1
4984 4985 1
4985 4986 1
4986 4987 1
4987 4988 1
4988 4989 1
4989 4990 1
4990 4991 1
4991 4992 1
4992 4993 1
4993 4994 1
4994 4995 1
4995 4996 1
4996 4997 1
4997 4998 1
4998 4999 1
4999 5000 1
5001 5101 1
5101 5201 1
5201 5301 1
5301 5401 1
5401 5501 1
 82 182 2
182 282 2
282 382 2
382 482 2
482 582 2
582 682 2
682 782 2
782 882 2
882 982 2
982 1082 2
1082 1182 2
1182 1282 2
1282 1382 2
1382 1482 2
1482 1582 2
1582 1682 2
1682 1782 2
1782 1882 2
1882 1982 2
1902 1901 2
1903 1902 2
1904 1903 2
1905 1904 2
1906 1905 2
1907 1906 2
1908 1907 2
1909 1908 2
1910 1909 2
1911 1910 2
1912 1911 2
1913 1912 2
1914 1913 2
1915 1914 2
1916 1915 2
1917 1916 2
1918 1917 2
1919 1918 2
1920 1919 2
1921 1920 2
1922 1921 2
1923 1922 2
1924 1923 2
1925 1924 2
1926 1925 2
1927 1926 2
1928 1927 2
1929 1928 2
1930 1929 2
1931 1930 2
1932 1931 2
1933 1932 2
1934 1933 2
1935 1934 2
1936 1935 2
1937 1936 2
1938 1937 2
1939 1938 2
1940 1939 2
1941 1940 2
1942 1941 2
1943 1942 2
1944 1943 2
1945 1944 2
1946 1945 2
1947 1946 2
1948 1947 2
1949 1948 2
1950 1949 2
1951 1950 2
1952 1951 2
1953 1952 2
1954 1953 2
1955 1954 2
1956 1955 2
1957 1956 2
1958 1957 2
1959 1958 2
1960 1959 2
1961 1960 2
1962 1961 2
1963 1962 2
1964 1963 2
1965 1964 2
1966 1965 2
1967 1966 2
1968 1967 2
1969 1968 2
1970 1969 2
1971 1970 2
1972 1971 2
1973 1972 2
1974 1973 2
1975 1974 2
1976 1975 2
1977 1976 2
1978 1977 2
1979 1978 2
1980 1979 2
1981 1980 2
1982 1981 2
1982 2082 2
2082 2182 2
2182 2282 2
2282 2382 2
2382 2482 2
2482 2582 2
2582 2682 2
2682 2683 2
2683 2684 2
2684 2685 2
2685 2686 2
2686 2687 2
2687 2688 2
2688 2689 2
2689 2690 2
2690 2691 2
2691 2692 2
2692 2693 2
2693 2694 2
2694 2695 2
2695 2696 2
2696 2697 2
2697 2698 2
2698 2699 2
2699 2700 2
 73  72 3
 74  73 3
 75  74 3
10075  75 3
10076 10075 3
10077 10076 3
10078 10077 3
10079 10078 3
10080 10079 3
10081 10080 3
 83 10083 3
10082 10081 3
 84  83 3
10083 10082 3
 85  84 3
 86  85 3
 87  86 3
 88  87 3
188  88 3
189 188 3
289 189 3
389 289 3
489 389 3
490 489 3
590 490 3
690 590 3
691 690 3
692 691 3
792 692 3
892 792 3
992 892 3
993 992 3
1093 993 3
1193 1093 3
1293 1193 3
1294 1293 3
1394 1294 3
1494 1394 3
1495 1494 3
1595 1495 3
1695 1595 3
1795 1695 3
1895 1795 3
1896 1895 3
1897 1896 3
1997 1897 3
1998 1997 3
1999 1998 3
2099 1999 3
2100 2099 3
2200 2100 3
7500 7600 4
7600 7700 4
7700 7800 4
7800 7900 4
7900 8000 4
8000 8100 4
8100 8200 4
8200 8300 4
8300 8400 4
8400 8500 4
8500 8600 4
8600 8700 4
8700 8800 4
8800 8900 4
8900 9000 4
9000 9100 4
9100 9200 4
9200 9300 4
9300 9400 4
9400 9500 4
9500 9600 4
9600 9700 4
9700 9800 4
9800 9900 4
9821 9921 4
9822 9821 4
9823 9822 4
9824 9823 4
9825 9824 4
9826 9825 4
9827 9826 4
9828 9827 4
9829 9828 4
9830 9829 4
9831 9830 4
9832 9831 4
9833 9832 4
9834 9833 4
9835 9834 4
9836 9835 4
9837 9836 4
9838 9837 4
9839 9838 4
9840 9839 4
9841 9840 4
9842 9841 4
9843 9842 4
9844 9843 4
9845 9844 4
9846 9845 4
9847 9846 4
9848 9847 4
9849 9848 4
9850 9849 4
9851 9850 4
9852 9851 4
9853 9852 4
9854 9853 4
9855 9854 4
9856 9855 4
9857 9856 4
9858 9857 4
9859 9858 4
9860 9859 4
9861 9860 4
9862 9861 4
9863 9862 4
9864 9863 4
9865 9864 4
9866 9865 4
9867 9866 4
9868 9867 4
9869 9868 4
9870 9869 4
9871 9870 4
9872 9871 4
9873 9872 4
9874 9873 4
9875 9874 4
9876 9875 4
9877 9876 4
9878 9877 4
9879 9878 4
9880 9879 4
9881 9880 4
9882 9881 4
9883 9882 4
9884 9883 4
9885 9884 4
9886 9885 4
9887 9886 4
9888 9887 4
9889 9888 4
9890 9889 4
9891 9890 4
9892 9891 4
9893 9892 4
9894 9893 4
9895 9894 4
9896 9895 4
9897 9896 4
9898 9897 4
9899 9898 4
9900 9899 4
9923 19923 5
9924 9923 5
9925 9924 5
9926 9925 5
9927 9926 5
9928 9927 5
9929 9928 5
9930 9929 5
9931 9930 5
9932 9931 5
9933 9932 5
9934 9933 5
9935 9934 5
9936 9935 5
9937 9936 5
9938 9937 5
9939 9938 5
9940 9939 5
9941 9940 5
9942 9941 5
9943 9942 5
9944 9943 5
9945 9944 5
9946 9945 5
9947 9946 5
9948 9947 5
9949 9948 5
9950 9949 5
9951 9950 5
9952 9951 5
9953 9952 5
9954 9953 5
9955 9954 5
9956 9955 5
9957 9956 5
9958 9957 5
9959 9958 5
9960 9959 5
9961 9960 5
9962 9961 5
9963 9962 5
9964 9963 5
9965 9964 5
9966 9965 5
9967 9966 5
9968 9967 5
9969 9968 5
9970 9969 5
9971 9970 5
9972 9971 5
9973 9972 5
9974 9973 5
9975 9974 5
9976 9975 5
9977 9976 5
9978 9977 5
9979 9978 5
9980 9979 5
9981 9980 5
9982 9981 5
9983 9982 5
9984 9983 5
9985 9984 5
9986 9985 5
9987 9986 5
9988 9987 5
9989 9988 5
9990 9989 5
9991 9990 5
19902 9902 5
19903 19902 5
19904 19903 5
19905 19904 5
19906 19905 5
19907 19906 5
19908 19907 5
19909 19908 5
19910 19909 5
19911 19910 5
19912 19911 5
19913 19912 5
19914 19913 5
19915 19914 5
19916 19915 5
19917 19916 5
19918 19917 5
19919 19918 5
19920 19919 5
19921 19920 5
19922 19921 5
19923 19922 5
10014  14 6
10015 10014 6
10016 10015 6
10017 10016 6
10018 10017 6
10019 10018 6
10020 10019 6
10021 10020 6
10022 10021 6
10023 10022 6
10024 10023 6
10025 10024 6
10026 10025 6
10027 10026 6
10028 10027 6
10029 10028 6
10030 10029 6
10031 10030 6
10032 10031 6
10033 10032 6
10034 10033 6
10035 10034 6
10036 10035 6
10037 10036 6
10038 10037 6
10039 10038 6
10040 10039 6
10041 10040 6
10042 10041 6
10043 10042 6
10044 10043 6
10045 10044 6
10046 10045 6
10047 10046 6
10048 10047 6
10049 10048 6
10050 10049 6
10051 10050 6
10052 10051 6
10053 10052 6
10054 10053 6
10055 10054 6
10056 10055 6
10057 10056 6
10157 10057 6
10257 10157 6
10357 10257 6
10457 10357 6
10557 10457 6
10657 10557 6
10757 10657 6
10857 10757 6
10858 10857 6
10859 10858 6
10860 10859 6
10861 10860 6
10862 10861 6
10863 10862 6
10864 10863 6
10865 10864 6
10866 10865 6
10867 10866 6
10868 10867 6
10869 10868 6
10870 10869 6
10871 10870 6
10872 10871 6
10873 10872 6
10874 10873 6
10875 10874 6
10876 10875 6
10877 10876 6
10878 10877 6
10879 10878 6
10880 10879 6
10881 10880 6
10882 10881 6
10883 10882 6
10884 10883 6
10885 10884 6
10886 10885 6
10887 10886 6
10888 10887 6
10889 10888 6
10890 10889 6
10891 10890 6
10892 10891 6
10893 10892 6
10993 10893 6
10994 10993 6
11094 10994 6
11194 11094 6
11294 11194 6
11394 11294 6
11494 11394 6
11594 11494 6
11694 11594 6
11794 11694 6
11894 11794 6
11994 11894 6
12094 11994 6
12194 12094 6
12294 12194 6
12394 12294 6
12494 12394 6
12594 12494 6
12694 12594 6
12794 12694 6
12894 12794 6
12994 12894 6
13094 12994 6
13194 13094 6
13294 13194 6
13394 13294 6
13494 13394 6
13594 13494 6
13694 13594 6
13794 13694 6
13894 13794 6
13994 13894 6
14094 13994 6
14194 14094 6
14294 14194 6
14394 14294 6
14494 14394 6
14594 14494 6
14694 14594 6
14794 14694 6
14894 14794 6
14895 14894 6
14896 14895 6
14897 14896 6
14898 14897 6
14899 14898 6
14999 14899 6
15099 14999 6
15199 15099 6
15299 15199 6
15399 15299 6
15499 15399 6
15599 15499 6
15699 15599 6
15799 15699 6
15899 15799 6
15999 15899 6
16099 15999 6
16199 16099 6
16299 16199 6
16399 16299 6
16499 16399 6
16599 16499 6
16699 16599 6
16799 16699 6
16899 16799 6
7000 7100 6
7000 17000 6
16900 16899 6
7100 7200 6
17000 16900 6
7200 7300 6
7300 7400 6
101 201 7
102 101 7
103 102 7
104 103 7
105 104 7
106 105 7
107 106 7
108 107 7
109 108 7
110 109 7
111 110 7
112 111 7
113 112 7
114 113 7
115 114 7
116 115 7
117 116 7
118 117 7
119 118 7
120 119 7
121 120 7
122 121 7
123 122 7
124 123 7
125 124 7
126 125 7
127 126 7
128 127 7
129 128 7
130 129 7
131 130 7
132 131 7
133 132 7
134 133 7
135 134 7
136 135 7
137 136 7
138 137 7
139 138 7
140 139 7
141 140 7
142 141 7
143 142 7
144 143 7
145 144 7
146 145 7
147 146 7
148 147 7
149 148 7
150 149 7
151 150 7
152 151 7
153 152 7
154 153 7
155 154 7
156 155 7
157 156 7
158 157 7
159 158 7
160 159 7
161 160 7
162 161 7
163 162 7
164 163 7
165 164 7
166 165 7
167 166 7
168 167 7
169 168 7
170 169 7
171 170 7
172 171 7
173 172 7
174 173 7
175 174 7
176 175 7
177 176 7
 79 179 7
178 177 7
179 178 7
201 301 7
301 401 7
401 501 7
501 601 7
601 701 7
701 801 7
801 901 7
901 1001 7
1001 1101 7
1101 1201 7
1201 1301 7
1301 1401 7
1401 1501 7
1501 1601 7
1601 1701 7
1701 1801 7
 22  23 8
 23  24 8
 24  25 8
 25  26 8
 26  27 8
 27  28 8
 28  29 8
 29  30 8
 30  31 8
 31  32 8
 32  33 8
 33  34 8
 34  35 8
 35  36 8
 36  37 8
 37  38 8
 38  39 8
 39  40 8
 40  41 8
 41  42 8
 42  43 8
 43  44 8
 44  45 8
 45  46 8
 46  47 8
 47  48 8
 48  49 8
 49  50 8
 50  51 8
 51  52 8
 52  53 8
 53  54 8
 54  55 8
 55  56 8
 56  57 8
 57  58 8
 58  59 8
 59  60 8
 60  61 8
 61  62 8
 62  63 8
 63  64 8
 64  65 8
 65  66 8
 66  67 8
 67  68 8
 68 10068 8
10068 10069 8
10069 10169 8
10169 10170 8
10170 10171 8
10171 10172 8
10172 10272 8
10272 10372 8
10372 10373 8
10373 10374 8
10374 10474 8
10474 10475 8
10475 10476 8
10476 10477 8
10477 10478 8
10478 10479 8
10479 10480 8
10480 10481 8
10481 10581 8
10581 10582 8
10582 10682 8
10682 10683 8
10683 10684 8
10684 10685 8
10685 10686 8
10686 10687 8
10687 10688 8
10688 10689 8
10689 10789 8
10789 10790 8
10790 10791 8
10791 10792 8
10792 10793 8
10793 10794 8
894 895 8
10794 10894 8
895 995 8
10894 894 8
995 996 8
996 1096 8
1096 1097 8
1097 1098 8
1098 1099 8
1099 1199 8
1199 1200 8
1200 1300 8
 90 190 9
190 290 9
290 390 9
390 10390 9
10390 10490 9
589 689 9
10490 10590 9
689 789 9
10589 589 9
10590 10589 9
789 889 9
886 986 9
887 886 9
888 887 9
889 888 9
986 1086 9
1086 1186 9
1186 1286 9
1286 1386 9
1386 1486 9
1486 1586 9
1586 11586 9
11586 11686 9
11686 11786 9
11784 11884 9
11785 11784 9
11786 11785 9
11884 11984 9
11984 12084 9
12084 12184 9
12184 12284 9
12284 12384 9
12384 12484 9
12484 12584 9
12583 12683 9
12584 12583 9
12683 12783 9
12776 12876 9
12777 12776 9
12778 12777 9
12779 12778 9
12780 12779 9
12781 12780 9
12782 12781 9
12783 12782 9
12876 12976 9
12974 13074 9
12975 12974 9
12976 12975 9
13074 13174 9
13172 13272 9
13173 13172 9
13174 13173 9
13272 13372 9
13370 13470 9
13371 13370 9
13372 13371 9
13470 13570 9
13568 13668 9
13569 13568 9
13570 13569 9
13668 13768 9
13766 13866 9
13767 13766 9
13768 13767 9
13866 13966 9
13964 14064 9
13965 13964 9
13966 13965 9
14064 14164 9
14162 14262 9
14163 14162 9
14164 14163 9
14262 14362 9
14360 14460 9
14361 14360 9
14362 14361 9
14460 14560 9
14558 14658 9
14559 14558 9
14560 14559 9
14658 14758 9
14756 14856 9
14757 14756 9
14758 14757 9
14855 14955 9
14856 14855 9
14955 15055 9
15055 15155 9
15155 15255 9
15255 15355 9
15355 15455 9
15454 15554 9
15455 15454 9
15554 15654 9
15654 15754 9
15754 15854 9
15854 15954 9
15954 16054 9
16054 16154 9
16154 16254 9
16253 16353 9
16254 16253 9
16352 16452 9
16353 16352 9
16450 16550 9
16451 16450 9
16452 16451 9
16548 16648 9
16549 16548 9
16550 16549 9
16647 16747 9
16648 16647 9
16747 16847 9
16845 16945 9
16846 16845 9
16847 16846 9
16945 17045 9
17043 17143 9
17044 17043 9
17045 17044 9
7237 7337 9
7238 7237 9
7239 7238 9
7240 7239 9
7241 7240 9
7242 7241 9
17143 17243 9
7331 7431 9
7332 7331 9
7333 7332 9
7334 7333 9
7335 7334 9
7336 7335 9
7337 7336 9
17242 7242 9
17243 17242 9
7402 7401 9
7403 7402 9
7404 7403 9
7405 7404 9
7406 7405 9
7407 7406 9
7408 7407 9
7409 7408 9
7410 7409 9
7411 7410 9
7412 7411 9
7413 7412 9
7414 7413 9
7415 7414 9
7416 7415 9
7417 7416 9
7417 7517 9
7418 7417 9
7419 7418 9
7420 7419 9
7421 7420 9
7422 7421 9
7423 7422 9
7424 7423 9
7425 7424 9
7426 7425 9
7427 7426 9
7428 7427 9
7429 7428 9
7430 7429 9
7431 7430 9
7517 7617 9
7617 7717 9
7717 7817 9
7817 7917 9
7917 8017 9
8017 8117 9
8117 8217 9
8217 8317 9
8317 8417 9
8417 8517 9
8517 8617 9
8617 8717 9
8717 8817 9
8817 8917 9
8917 9017 9
9017 9117 9
9117 9217 9
9217 9317 9
9317 9417 9
9417 9517 9
9517 9617 9
9617 9717 9
9717 9817 9
9817 9917 9
6501 6601 10
6601 6701 10
6701 6801 10
6801 6901 10
6901 7001 10
7001 7101 10
7101 7201 10
7201 7301 10
7301 17301 10
17301 17401 10
7501 7601 10
17401 17501 10
7601 7701 10
17501 7501 10
 69  70 11
 70 10070 11
10070 10071 11
10071 10072 11
10072 10073 11
10073 10074 11
10074 10174 11
10174 10175 11
10175 10176 11
10176 10177 11
10177 10178 11
10178 10179 11
10179 10180 11
10180 10181 11
10181 10182 11
10182 10183 11
10183 10184 11
10184 10185 11
10185 10186 11
10186 10187 11
10187 10188 11
10188 10189 11
10189 10190 11
10190 10191 11
10191 10291 11
391 392 11
10291 10391 11
392 492 11
10391 391 11
492 592 11
592 593 11
593 693 11
693 694 11
694 695 11
695 795 11
795 796 11
796 797 11
797 897 11
897 997 11
997 998 11
998 999 11
999 1000 11
1000 1100 11
4900 14900 12
14900 15000 12
15000 15100 12
15100 15200 12
15200 15300 12
15300 15400 12
15400 15500 12
15500 15600 12
15600 15700 12
5800 5900 12
15700 15800 12
5900 6000 12
15800 5800 12
6000 6100 12
6100 6200 12
6200 6300 12
6300 6400 12
6400 6500 12
6500 6600 12
6600 6700 12
6699 6799 12
6700 6699 12
6798 6898 12
6799 6798 12
6896 16896 12
6897 6896 12
6898 6897 12
16896 16996 12
16996 17096 12
17096 17196 12
17195 17295 12
17196 17195 12
17295 17395 12
17395 17495 12
17495 17595 12
17595 17695 12
17695 17795 12
17795 17895 12
17895 17995 12
17995 18095 12
18095 18195 12
18195 18295 12
18295 18395 12
18395 18495 12
18495 18595 12
18595 18695 12
18695 18795 12
18795 18895 12
18895 18995 12
18995 19095 12
19095 19195 12
19195 19295 12
19295 19395 12
19395 19495 12
19495 19595 12
19595 19695 12
19695 19795 12
19795 19895 12
19895 19995 12
19995 9995 12
 78  77 13
6101 6001 14
6201 6101 14
6301 6201 14
6401 6301 14
6402 6401 14
6502 6402 14
6602 6502 14
6702 6602 14
6802 6702 14
6902 6802 14
7002 6902 14
7102 7002 14
7202 7102 14
7302 7202 14
17302 7302 14
7502 17502 14
17402 17302 14
7602 7502 14
17502 17402 14
7702 7602 14
7801 7802 14
7802 7702 14
7901 7801 14
8001 7901 14
8101 8001 14
8201 8101 14
8301 8201 14
8401 8301 14
8501 8401 14
8601 8501 14
